n_res = 4;
rcap = [12, 13, 65, 63];
rtype = [1, 1, 2, 2];
n_tasks = 16;
modes = [ {1, 2}, {3, 4}, {5, 6}, {7, 8}, {9, 10}, {11, 12}, {13, 14}, {15, 16}, {17, 18}, {19, 20}, {21, 22}, {23, 24}, {25, 26}, {27, 28}, {29, 30}, {31, 32} ];
succ = [ {4, 6, 9}, {7, 16}, {5, 6, 12}, {8, 12, 13}, {7, 8}, {13, 14}, {9, 13}, {10, 11, 15}, {10}, {14}, {14, 16}, {15, 16}, {15}, {}, {}, {} ];
n_opt = 32;
dur = [5, 8, 2, 4, 8, 10, 1, 6, 3, 6, 6, 10, 1, 6, 4, 5, 1, 2, 6, 9, 2, 3, 5, 9, 5, 10, 3, 8, 1, 7, 2, 2];
rreq = [|  6,  4,  6,  5,  9,  7,  6,  2,  6,  4,  9,  6,  7,  5,  3,  3,  7,  7,  8,  3,  7,  4,  8,  6,  9,  5,  6,  6,  7,  5,  4,  7
        |  4,  4,  4,  3,  5,  5,  4,  3, 10,  9,  3,  3, 10,  9,  3,  3,  8,  7,  8,  8,  3,  2,  5,  5,  7,  7,  4,  4,  8,  7, 10,  9
        |  3,  0,  0,  5,  0,  9,  5,  0,  2,  1,  0,  2,  0,  0,  0, 10,  6,  0,  0,  0,  0,  0,  0,  0,  0,  0,  8,  6,  9,  6,  0,  6
        |  0,  2,  6,  0,  8,  0,  0,  3,  0,  0,  2,  0,  4,  4,  2,  0,  0,  3,  5,  2, 10, 10, 10,  7,  4,  4,  0,  0,  0,  0,  4,  0 |];
